63 62 9 32 77 12 
50 27 1 3 79 66 20 89 
81 33 51 24 56 74 75 73 72 
83 45 95 59 97 57 4 21 2 
7 69 30 52 10 31 26 58 
96 42 15 43 14 16 61 5 85 98 
94 60 82 19 49 47 17 93 
71 65 78 35 34 29 
36 88 6 18 13 100 
28 54 37 87 91 46 48 
39 40 53 55 80 
92 86 44 38 90 70 
23 41 68 25 
76 
22 
11 8 
67 
99 84 
64 

